# Solution for model problem_
# Objective value = 3.6712263439110269e+04
x(0_0) 0
x(0_1) 0
x(0_2) 0
x(0_3) 0
x(0_4) 0
x(0_5) 0
x(0_6) 0
x(0_7) 0
x(0_8) 0
x(0_9) 0
x(0_10) 0
x(0_11) 1
x(0_12) 0
x(0_13) 0
x(0_14) 0
x(0_15) 0
x(0_16) 0
x(0_17) 0
x(0_18) 0
x(0_19) 0
x(1_20) 0
x(1_21) 0
x(1_22) 0
x(1_23) 0
x(1_24) 0
x(1_25) 0
x(1_26) 0
x(1_27) 0
x(1_28) 0
x(1_29) 0
x(1_30) 0
x(1_31) 1
x(1_32) 0
x(1_33) 0
x(2_34) 0
x(2_35) 0
x(2_36) 0
x(2_37) 0
x(2_38) 0
x(2_39) 0
x(2_40) 0
x(2_41) 0
x(2_42) 0
x(2_43) 0
x(2_44) 0
x(2_45) 1
x(2_46) 0
x(2_47) 0
x(2_48) 0
x(2_49) 0
x(2_50) 0
x(2_51) 0
x(2_52) 0
x(3_53) 0
x(3_54) 0
x(3_55) 0
x(3_56) 0
x(3_57) 0
x(3_58) 0
x(3_59) 1
x(3_60) 0
x(3_61) 0
x(3_62) 0
x(3_63) 0
x(3_64) 0
x(4_65) 0
x(4_66) 0
x(4_67) 0
x(4_68) 0
x(4_69) 0
x(4_70) 0
x(4_71) 0
x(4_72) 0
x(4_73) 0
x(4_74) 1
x(4_75) 0
x(4_76) 0
x(5_77) 0
x(5_78) 0
x(5_79) 1
x(5_80) 0
x(5_81) 0
x(5_82) 0
x(5_83) 0
x(5_84) 0
x(5_85) 0
x(5_86) 0
x(5_87) 0
x(6_88) 0
x(6_89) 0
x(6_90) 0
x(6_91) 0
x(6_92) 0
x(6_93) 0
x(6_94) 0
x(6_95) 0
x(6_96) 0
x(6_97) 1
x(6_98) 0
x(6_99) 0
x(6_100) 0
x(7_101) 0
x(7_102) 0
x(7_103) 0
x(7_104) 0
x(7_105) 0
x(7_106) 0
x(7_107) 0
x(7_108) 0
x(7_109) 0
x(7_110) 0
x(7_111) 0
x(7_112) 0
x(7_113) 0
x(7_114) 0
x(7_115) 0
x(7_116) 1
x(7_117) 0
x(7_118) 0
x(7_119) 0
x(7_120) 0
x(8_121) 0
x(8_122) 0
x(8_123) 1
x(8_124) 0
x(8_125) 0
x(8_126) 0
x(8_127) 0
x(8_128) 0
x(8_129) 0
x(8_130) 0
x(8_131) 0
x(8_132) 0
x(8_133) 0
x(8_134) 0
x(8_135) 0
x(8_136) 0
x(8_137) 0
x(8_138) 0
x(9_139) 0
x(9_140) 0
x(9_141) 0
x(9_142) 0
x(9_143) 0
x(9_144) 0
x(9_145) 0
x(9_146) 0
x(9_147) 0
x(9_148) 0
x(9_149) 0
x(9_150) 0
x(9_151) 0
x(9_152) 1
x(9_153) 0
x(10_154) 0
x(10_155) 0
x(10_156) 0
x(10_157) 0
x(10_158) 0
x(10_159) 0
x(10_160) 0
x(10_161) 0
x(10_162) 0
x(10_163) 0
x(10_164) 1
x(10_165) 0
x(10_166) 0
x(10_167) 0
x(10_168) 0
x(10_169) 0
x(10_170) 0
x(10_171) 0
x(11_172) 0
x(11_173) 0
x(11_174) 0
x(11_175) 0
x(11_176) 1
x(11_177) 0
x(11_178) 0
x(11_179) 0
x(11_180) 0
x(11_181) 0
x(11_182) 0
x(11_183) 0
x(11_184) 0
x(12_185) 0
x(12_186) 0
x(12_187) 0
x(12_188) 0
x(12_189) 0
x(12_190) 1
x(12_191) 0
x(12_192) 0
x(12_193) 0
x(12_194) 0
x(12_195) 0
x(12_196) 0
x(12_197) 0
x(12_198) 0
x(12_199) 0
x(12_200) 0
x(13_201) 0
x(13_202) 0
x(13_203) 0
x(13_204) 0
x(13_205) 0
x(13_206) 0
x(13_207) 0
x(13_208) 0
x(13_209) 0
x(13_210) 0
x(13_211) 0
x(13_212) 0
x(13_213) 1
x(13_214) 0
x(14_215) 0
x(14_216) 0
x(14_217) 0
x(14_218) 0
x(14_219) 1
x(14_220) 0
x(14_221) 0
x(14_222) 0
x(14_223) 0
x(14_224) 0
x(14_225) 0
x(14_226) 0
x(14_227) 0
x(14_228) 0
x(14_229) 0
x(15_230) 0
x(15_231) 0
x(15_232) 0
x(15_233) 0
x(15_234) 0
x(15_235) 0
x(15_236) 0
x(15_237) 0
x(15_238) 0
x(15_239) 0
x(15_240) 0
x(15_241) 0
x(15_242) 0
x(15_243) 1
x(15_244) 0
x(15_245) 0
x(15_246) 0
x(15_247) 0
x(15_248) 0
x_1_0 6.5655390501022339e+01
s_1_0 0
z_1_0 0
x_1_1 6.5841747045516968e+01
s_1_1 0
z_1_1 0
x_1_2 6.6740067958831787e+01
s_1_2 0
z_1_2 0
x_1_3 0
s_1_3 0.47757286822889
z_1_3 1
x_1_4 0
s_1_4 4.3960754293948412e-02
z_1_4 1
x_1_5 6.6779317855834961e+01
s_1_5 0
z_1_5 0
x_1_6 6.6272406578063965e+01
s_1_6 0
z_1_6 0
x_1_7 6.6359731912612915e+01
s_1_7 0
z_1_7 0
x_1_8 6.6834138154983521e+01
s_1_8 0
z_1_8 0
x_1_9 6.6529118537902832e+01
s_1_9 0
z_1_9 0
x_1_10 6.6398446321487427e+01
s_1_10 0
z_1_10 0
x_1_11 6.6032209157943726e+01
s_1_11 0
z_1_11 0
x_1_12 6.6497824192047119e+01
s_1_12 0
z_1_12 0
x_1_13 6.6071015596389771e+01
s_1_13 0
z_1_13 0
x_1_14 66.4253237247467
s_1_14 0
z_1_14 0
x_1_15 0
s_1_15 6.0266850842162967e-01
z_1_15 1
x_1_16 6.6999205350875854e+01
s_1_16 0
z_1_16 0
x_1_17 0
s_1_17 2.9709030641242862e-01
z_1_17 1
x_1_18 0
s_1_18 5.3898144932463765e-01
z_1_18 1
x_1_19 6.6620948076248169e+01
s_1_19 0
z_1_19 0
x_1_20 0
s_1_20 5.0907310956972651e-01
z_1_20 1
x_1_21 6.6893934488296509e+01
s_1_21 0
z_1_21 0
x_1_22 6.5103285312652588e+01
s_1_22 0
z_1_22 0
x_1_23 0
s_1_23 4.0662381192669272e-01
z_1_23 1
x_1_24 6.6076904535293579e+01
s_1_24 0
z_1_24 0
x_1_25 0
s_1_25 0.69108508201316
z_1_25 1
x_1_26 6.6873587131500244e+01
s_1_26 0
z_1_26 0
x_1_27 66.7193386554718
s_1_27 0
z_1_27 0
x_1_28 6.6308491945266724e+01
s_1_28 0
z_1_28 0
x_1_29 6.6623329162597656e+01
s_1_29 0
z_1_29 0
x_1_30 6.5675630569458008e+01
s_1_30 0
z_1_30 0
x_1_31 6.6341599702835083e+01
s_1_31 0
z_1_31 0
x_1_32 6.6012342929840088e+01
s_1_32 0
z_1_32 0
x_1_33 0
s_1_33 5.8294690138427541e-01
z_1_33 1
x_1_34 6.6659292936325073e+01
s_1_34 0
z_1_34 0
x_1_35 0
s_1_35 4.9888775055296719e-01
z_1_35 1
x_1_36 0
s_1_36 6.3218610547482967e-01
z_1_36 1
x_1_37 6.5802978754043579e+01
s_1_37 0
z_1_37 0
x_1_38 6.6231244802474976e+01
s_1_38 0
z_1_38 0
x_1_39 0
s_1_39 4.9803359853103757e-01
z_1_39 1
x_1_40 6.6303666591644287e+01
s_1_40 0
z_1_40 0
x_1_41 0
s_1_41 5.0907999416813254e-01
z_1_41 1
x_1_42 0
s_1_42 5.8420158200897276e-01
z_1_42 1
x_1_43 6.6715957641601562e+01
s_1_43 0
z_1_43 0
x_1_44 6.6396041631698608e+01
s_1_44 0
z_1_44 0
x_1_45 6.6460601806640625e+01
s_1_45 0
z_1_45 0
x_1_46 0
s_1_46 1.1017196287866682e-01
z_1_46 1
x_1_47 66.4003415107727
s_1_47 0
z_1_47 0
x_1_48 6.6038082361221313e+01
s_1_48 0
z_1_48 0
x_1_49 65.7079746723175
s_1_49 0
z_1_49 0
x_1_50 0
s_1_50 5.0706632091896608e-01
z_1_50 1
x_1_51 6.6707802772521973e+01
s_1_51 0
z_1_51 0
x_1_52 6.5909880638122559e+01
s_1_52 0
z_1_52 0
x_1_53 0
s_1_53 0.564421677030623
z_1_53 1
x_1_54 6.5912508249282837e+01
s_1_54 0
z_1_54 0
x_1_55 0
s_1_55 5.3549696747359121e-01
z_1_55 1
x_1_56 6.6092670440673828e+01
s_1_56 0
z_1_56 0
x_1_57 6.6907173633575439e+01
s_1_57 0
z_1_57 0
x_1_58 6.6458966255187988e+01
s_1_58 0
z_1_58 0
x_1_59 6.6810540199279785e+01
s_1_59 0
z_1_59 0
x_1_60 6.6344570398330688e+01
s_1_60 0
z_1_60 0
x_1_61 6.5551321744918823e+01
s_1_61 0
z_1_61 0
x_1_62 6.6453101158142090e+01
s_1_62 0
z_1_62 0
x_1_63 6.4406802654266357e+01
s_1_63 0
z_1_63 0
x_1_64 6.6506347417831421e+01
s_1_64 0
z_1_64 0
x_1_65 6.6424789428710938e+01
s_1_65 0
z_1_65 0
x_1_66 6.5537193536758423e+01
s_1_66 0
z_1_66 0
x_1_67 0
s_1_67 2.5242852815426886e-01
z_1_67 1
x_1_68 65.7922933101654
s_1_68 0
z_1_68 0
x_1_69 6.6713712215423584e+01
s_1_69 0
z_1_69 0
x_1_70 6.6122115373611450e+01
s_1_70 0
z_1_70 0
x_1_71 6.5621481180191040e+01
s_1_71 0
z_1_71 0
x_1_72 0
s_1_72 5.0703982077538967e-01
z_1_72 1
x_1_73 0
s_1_73 6.3918674457818270e-01
z_1_73 1
x_1_74 6.6325708389282227e+01
s_1_74 0
z_1_74 0
x_1_75 66.9363043308258
s_1_75 0
z_1_75 0
x_1_76 0
s_1_76 6.2675224384292960e-01
z_1_76 1
x_1_77 6.5968868494033813e+01
s_1_77 0
z_1_77 0
x_1_78 6.6336912155151367e+01
s_1_78 0
z_1_78 0
x_1_79 6.6497732400894165e+01
s_1_79 0
z_1_79 0
x_1_80 0
s_1_80 4.0616677282378078e-01
z_1_80 1
x_1_81 0
s_1_81 2.8445521410321817e-01
z_1_81 1
x_1_82 6.6755570173263550e+01
s_1_82 0
z_1_82 0
x_1_83 0
s_1_83 2.2216916817706078e-01
z_1_83 1
x_1_84 66.6515953540802
s_1_84 0
z_1_84 0
x_1_85 6.5921628952026367e+01
s_1_85 0
z_1_85 0
x_1_86 0
s_1_86 6.5255117509514093e-01
z_1_86 1
x_1_87 0
s_1_87 6.6839656722004293e-01
z_1_87 1
x_1_88 0
s_1_88 4.8578209895640612e-01
z_1_88 1
x_1_89 0
s_1_89 7.8303446888457984e-01
z_1_89 1
x_1_90 0
s_1_90 4.0120578603819013e-01
z_1_90 1
x_1_91 0
s_1_91 5.4215434496290982e-01
z_1_91 1
x_1_92 0
s_1_92 0.770776217803359
z_1_92 1
x_1_93 0
s_1_93 5.0959799811244011e-01
z_1_93 1
x_1_94 0
s_1_94 6.3296217977767810e-01
z_1_94 1
x_1_95 6.6680045843124390e+01
s_1_95 0
z_1_95 0
x_1_96 6.6609006643295288e+01
s_1_96 0
z_1_96 0
x_1_97 6.6352580308914185e+01
s_1_97 0
z_1_97 0
x_1_98 0
s_1_98 7.9476811178028584e-01
z_1_98 1
x_1_99 66.0566394329071
s_1_99 0
z_1_99 0
x_1_100 0
s_1_100 7.6983802625909448e-01
z_1_100 1
x_1_101 0
s_1_101 6.2932733166962862e-01
z_1_101 1
x_1_102 0
s_1_102 6.5242572921852116e-01
z_1_102 1
x_1_103 0
s_1_103 3.3919993462041020e-01
z_1_103 1
x_1_104 66.6972131729126
s_1_104 0
z_1_104 0
x_1_105 6.5485721111297607e+01
s_1_105 0
z_1_105 0
x_1_106 0
s_1_106 5.0791990605648607e-01
z_1_106 1
x_1_107 6.6334148406982422e+01
s_1_107 0
z_1_107 0
x_1_108 6.6838454961776733e+01
s_1_108 0
z_1_108 0
x_1_109 6.6155843257904053e+01
s_1_109 0
z_1_109 0
x_1_110 0
s_1_110 9.8228794813621789e-01
z_1_110 1
x_1_111 6.6707774400711060e+01
s_1_111 0
z_1_111 0
x_1_112 0
s_1_112 8.3849667781032622e-01
z_1_112 1
x_1_113 6.6160887718200684e+01
s_1_113 0
z_1_113 0
x_1_114 6.6595159530639648e+01
s_1_114 0
z_1_114 0
x_1_115 0
s_1_115 6.4351406577043235e-01
z_1_115 1
x_1_116 0
s_1_116 5.6444188079331070e-01
z_1_116 1
x_1_117 0
s_1_117 1.6441607871092856e-01
z_1_117 1
x_1_118 0
s_1_118 5.5765452980995178e-01
z_1_118 1
x_1_119 6.5876560926437378e+01
s_1_119 0
z_1_119 0
x_1_120 0
s_1_120 4.9444129853509367e-01
z_1_120 1
x_1_121 0
s_1_121 1.6924116294831038e-01
z_1_121 1
x_1_122 0
s_1_122 3.4760889038443565e-01
z_1_122 1
x_1_123 0
s_1_123 5.6895765382796526e-01
z_1_123 1
x_1_124 65.7346875667572
s_1_124 0
z_1_124 0
x_1_125 6.6560622930526733e+01
s_1_125 0
z_1_125 0
x_1_126 66.6676197052002
s_1_126 0
z_1_126 0
x_1_127 0
s_1_127 4.6245895384345204e-01
z_1_127 1
x_1_128 6.6221208095550537e+01
s_1_128 0
z_1_128 0
x_1_129 6.6222975015640259e+01
s_1_129 0
z_1_129 0
x_1_130 6.6181942462921143e+01
s_1_130 0
z_1_130 0
x_1_131 6.6649746894836426e+01
s_1_131 0
z_1_131 0
x_1_132 0
s_1_132 6.5634160395711660e-01
z_1_132 1
x_1_133 6.6569285154342651e+01
s_1_133 0
z_1_133 0
x_1_134 6.6901885271072388e+01
s_1_134 0
z_1_134 0
x_1_135 6.6318713426589966e+01
s_1_135 0
z_1_135 0
x_1_136 6.6270297050476074e+01
s_1_136 0
z_1_136 0
x_1_137 6.5788465499877930e+01
s_1_137 0
z_1_137 0
x_1_138 6.6231441736221313e+01
s_1_138 0
z_1_138 0
x_1_139 6.6041021108627319e+01
s_1_139 0
z_1_139 0
x_1_140 6.6858941316604614e+01
s_1_140 0
z_1_140 0
x_1_141 6.6787063837051392e+01
s_1_141 0
z_1_141 0
x_1_142 66.3343403339386
s_1_142 0
z_1_142 0
x_1_143 6.6296905279159546e+01
s_1_143 0
z_1_143 0
x_1_144 0
s_1_144 4.5825100412184838e-01
z_1_144 1
x_1_145 6.5971942424774170e+01
s_1_145 0
z_1_145 0
x_1_146 6.6307563066482544e+01
s_1_146 0
z_1_146 0
x_1_147 0
s_1_147 4.7987081948667765e-01
z_1_147 1
x_1_148 6.6339036226272583e+01
s_1_148 0
z_1_148 0
x_1_149 0
s_1_149 6.4157163724303246e-01
z_1_149 1
x_1_150 0
s_1_150 2.2614872851409018e-01
z_1_150 1
x_1_151 0
s_1_151 4.9385486217215657e-01
z_1_151 1
x_1_152 6.5803549051284790e+01
s_1_152 0
z_1_152 0
x_1_153 6.6032846212387085e+01
s_1_153 0
z_1_153 0
x_1_154 0
s_1_154 6.8890144643955864e-01
z_1_154 1
x_1_155 6.6076566219329834e+01
s_1_155 0
z_1_155 0
x_1_156 6.4496797323226929e+01
s_1_156 0
z_1_156 0
x_1_157 6.6351845741271973e+01
s_1_157 0
z_1_157 0
x_1_158 6.6501790285110474e+01
s_1_158 0
z_1_158 0
x_1_159 6.6661049365997314e+01
s_1_159 0
z_1_159 0
x_2_0 3.6557367439110269e+04
